STUDENTS = {Lloyd,Norma,Jeffrey,Wayne,LeRoy,Nicole,Caroline,Craig,Stacy,Deborah,Linda,Jerry,Andrew,Paige,William,Phillip,Susan,Elizabeth,Kent,Joyce,Nina,Kara,Melissa,Patrick,Karen,Katherine,Troy,Kimberly,Debbie,Arnold,Toni,Heather,Anita,Matthew,Carrie,Brian,Gail,Martin,Dennis,Darlene,Cathy,Thelma,Luis,Rodney,Terry,Glenda,Lisa,Sara,Sheila,Colleen,Francis,Alexandra,Shannon,Marcia,Valerie,Jose,Rick,Randy,Charlie,Kenneth,Eric,Robyn,Catherine,Josephine,Evelyn,Charlotte,Paul,Mark,Sally,Warren,Frederick,Hugh,John,Marshall,Miriam,Alice,Vicki,Jacqueline,Ruby,Paula,Benjamin,Alison,Scott,Greg,Gretchen,Constance,Earl,Juan,Dale,Terri,Ian,Amy,Esther,Debra,Geraldine,Marguerite,Gene,Carolyn,Crystal,Walter,Jay,Karl,Wesley,Sheryl,Kim,Ricky,Melinda,Leslie,Nancy,Nelson,Gwendolyn,Doris,Jimmy,Theresa,Lois,Derek,Lynda,Alan,Tonya,Beth,Leo,Erin,Peggy,Claude,Peter,Bobby,Tammy,Sam,Joseph,Amanda,Gloria,Lester,Bonnie,Helen,Vivian,Lauren,Barbara,Jackie,Louis,Sandra,Jill,Marc,Emma,Marcus,Ted,Eileen,Hannah,Sidney,Teresa,Marianne};
T = 150;
LWB = 3;
UPB = 5;
apart = [|Lloyd,Andrew|Lloyd,William|Lloyd,Gretchen|Norma,Colleen|Nicole,Gloria|Caroline,Paige|Craig,Jose|Stacy,Nancy|Deborah,Alison|Deborah,Sheryl|Linda,Tammy|Andrew,Cathy|Andrew,Hugh|Paige,Patrick|William,Robyn|William,Benjamin|William,Walter|Susan,Evelyn|Susan,Jimmy|Kent,Francis|Kent,Crystal|Nina,Marguerite|Kara,Lynda|Melissa,Terry|Melissa,Earl|Patrick,Alison|Katherine,Sally|Katherine,Tonya|Kimberly,Benjamin|Arnold,Luis|Heather,Lester|Carrie,Esther|Carrie,Lynda|Brian,Dennis|Dennis,Barbara|Darlene,Cathy|Darlene,Peggy|Cathy,Bobby|Cathy,Joseph|Thelma,Helen|Luis,Paul|Luis,Alison|Rodney,Jay|Terry,Tonya|Lisa,Wesley|Sheila,Geraldine|Sheila,Peter|Francis,Jose|Valerie,Evelyn|Valerie,Greg|Jose,Jay|Rick,Leo|Rick,Marc|Charlie,Charlotte|Charlie,Karl|Charlie,Sheryl|Charlie,Nelson|Kenneth,Amy|Robyn,Ian|Josephine,Juan|Josephine,Peter|Evelyn,Gwendolyn|Sally,Ricky|Sally,Helen|Frederick,Lois|Hugh,Kim|Hugh,Louis|Miriam,Gene|Alice,Jay|Alice,Leslie|Vicki,Greg|Paula,Gwendolyn|Benjamin,Alan|Scott,Gwendolyn|Gretchen,Bobby|Constance,Erin|Terri,Bobby|Terri,Teresa|Esther,Kim|Esther,Lois|Esther,Emma|Gene,Peggy|Gene,Vivian|Crystal,Emma|Crystal,Hannah|Wesley,Doris|Wesley,Jimmy|Ricky,Lester|Nelson,Tammy|Lois,Jill|Tonya,Peggy|Leo,Amanda|Bonnie,Sidney|];
together = [|Lloyd,Alexandra|Lloyd,Amy|Lloyd,Eileen|Norma,Miriam|Norma,Alison|Norma,Gene|Norma,Sheryl|Norma,Nancy|Jeffrey,Walter|Jeffrey,Lois|Wayne,Rodney|Wayne,Geraldine|Wayne,Jackie|LeRoy,Constance|Nicole,Emma|Caroline,Debra|Caroline,Leslie|Craig,Ian|Craig,Melinda|Craig,Sandra|Stacy,Leo|Deborah,Sam|Linda,Vicki|Jerry,Vicki|Jerry,Amanda|Andrew,Joyce|Andrew,Sidney|Paige,Dennis|William,Kim|Phillip,Catherine|Phillip,Marianne|Elizabeth,Troy|Kent,Ricky|Kent,Gwendolyn|Kent,Lynda|Kent,Emma|Joyce,Marc|Nina,Valerie|Nina,Sandra|Kara,Carolyn|Melissa,Rick|Melissa,Vivian|Patrick,Paul|Patrick,Crystal|Karen,Benjamin|Karen,Erin|Troy,Teresa|Kimberly,Carrie|Debbie,Matthew|Arnold,Juan|Brian,Warren|Brian,Karl|Gail,Randy|Martin,Walter|Martin,Lester|Darlene,Kim|Darlene,Hannah|Terry,Paul|Terry,Barbara|Glenda,Ricky|Lisa,Rick|Lisa,Gretchen|Sheila,Barbara|Alexandra,Marshall|Shannon,Valerie|Shannon,Jay|Shannon,Teresa|Valerie,Nancy|Valerie,Lester|Rick,Bobby|Randy,Jill|Charlie,Marianne|Eric,Evelyn|Josephine,Teresa|Charlotte,Marguerite|Charlotte,Eileen|Paul,Jackie|John,Jill|Marshall,Derek|Marshall,Gloria|Miriam,Crystal|Ruby,Esther|Paula,Bonnie|Benjamin,Jay|Gretchen,Theresa|Gretchen,Lois|Gretchen,Barbara|Earl,Sidney|Earl,Marianne|Dale,Melinda|Debra,Gene|Geraldine,Nancy|Geraldine,Lois|Marguerite,Joseph|Carolyn,Vivian|Sheryl,Alan|Gwendolyn,Tonya|Gwendolyn,Marianne|Alan,Louis|Leo,Jill|Tammy,Joseph|Tammy,Marc|Lester,Eileen|Bonnie,Marcus|];
